#######################
Slurm job id: 17497813_313
Running on machine: p47
Running cmd: /nfs/shared/static-builds/gurobi1202 SOFTMEMLIMIT=125 MIPFocus=0 Presolve=2 TimeLimit=300 seed=2 /nfs/models/miplib2010/k16x240.mps.bz2
#######################
Set parameter TimeLimit to value 300
Set parameter SoftMemLimit to value 125
Set parameter LogFile to value 1202-MIPFocus0-Presolve2-TimeLimit300-k16x240-2.log
Set parameter Presolve to value 2
Set parameter Seed to value 2
Using license file /opt/gurobi/gurobi.lic

Gurobi Optimizer version 12.0.2 build v12.0.2rc0 (linux64 - "Ubuntu 22.04.4 LTS")
Copyright (c) 2025, Gurobi Optimization, LLC

Read MPS format model from file /nfs/models/miplib2010/k16x240.mps.bz2
Reading time = 0.00 seconds
k16x240: 256 rows, 480 columns, 960 nonzeros

Using Gurobi shared library /nfs/shared/static-builds/gurobi1202

CPU model: Intel(R) Xeon(R) E-2388G CPU @ 3.20GHz, instruction set [SSE2|AVX|AVX2|AVX512]
Thread count: 8 physical cores, 16 logical processors, using up to 16 threads

Non-default parameters:
TimeLimit  300
SoftMemLimit  125
Presolve  2
Seed  2

Optimize a model with 256 rows, 480 columns and 960 nonzeros
Model fingerprint: 0x4e80885f
Variable types: 240 continuous, 240 integer (240 binary)
Coefficient statistics:
  Matrix range     [1e+00, 1e+03]
  Objective range  [1e+00, 1e+03]
  Bounds range     [1e+00, 1e+03]
  RHS range        [4e+00, 4e+02]
Found heuristic solution: objective 20929.000000
Presolve time: 0.00s
Presolved: 256 rows, 480 columns, 960 nonzeros
Variable types: 240 continuous, 240 integer (240 binary)
Root relaxation presolve removed 241 rows and 240 columns
Root relaxation presolved: 15 rows, 240 columns, 450 nonzeros


Root relaxation: objective 2.769838e+03, 16 iterations, 0.00 seconds (0.00 work units)

    Nodes    |    Current Node    |     Objective Bounds      |     Work
 Expl Unexpl |  Obj  Depth IntInf | Incumbent    BestBd   Gap | It/Node Time

     0     0 2769.83800    0   14 20929.0000 2769.83800  86.8%     -    0s
H    0     0                    11359.000000 2769.83800  75.6%     -    0s
H    0     0                    11320.000000 2769.83800  75.5%     -    0s
H    0     0                    11287.000000 2769.83800  75.5%     -    0s
H    0     0                    11248.000000 2769.83800  75.4%     -    0s
H    0     0                    11245.000000 2769.83800  75.4%     -    0s
H    0     0                    11240.000000 8084.69631  28.1%     -    0s
H    0     0                    11140.000000 8084.69631  27.4%     -    0s
     0     0 8084.69631    0   26 11140.0000 8084.69631  27.4%     -    0s
H    0     0                    11110.000000 8103.69089  27.1%     -    0s
H    0     0                    11108.000000 8103.69089  27.0%     -    0s
H    0     0                    11079.000000 8103.69089  26.9%     -    0s
H    0     0                    10895.000000 8528.16906  21.7%     -    0s
     0     0 8528.16906    0   24 10895.0000 8528.16906  21.7%     -    0s
     0     0 8539.49533    0   34 10895.0000 8539.49533  21.6%     -    0s
     0     0 8548.03675    0   29 10895.0000 8548.03675  21.5%     -    0s
     0     0 8708.04692    0   34 10895.0000 8708.04692  20.1%     -    0s
H    0     0                    10845.000000 8710.17343  19.7%     -    0s
H    0     0                    10802.000000 8710.17343  19.4%     -    0s
     0     0 8790.82698    0   30 10802.0000 8790.82698  18.6%     -    0s
     0     0 8794.42929    0   33 10802.0000 8794.42929  18.6%     -    0s
     0     0 8866.81454    0   33 10802.0000 8866.81454  17.9%     -    0s
     0     0 8888.13391    0   33 10802.0000 8888.13391  17.7%     -    0s
     0     0 8893.29427    0   31 10802.0000 8893.29427  17.7%     -    0s
     0     0 9036.17820    0   30 10802.0000 9036.17820  16.3%     -    0s
H    0     0                    10756.000000 9036.76572  16.0%     -    0s
     0     0 9053.17623    0   37 10756.0000 9053.17623  15.8%     -    0s
     0     0 9066.97131    0   36 10756.0000 9066.97131  15.7%     -    0s
     0     0 9070.63823    0   49 10756.0000 9070.63823  15.7%     -    0s
     0     0 9107.59538    0   47 10756.0000 9107.59538  15.3%     -    0s
     0     0 9113.98326    0   47 10756.0000 9113.98326  15.3%     -    0s
H    0     0                    10681.000000 9113.98326  14.7%     -    0s
     0     2 9113.98326    0   47 10681.0000 9113.98326  14.7%     -    0s
H 1758  1250                    10678.000000 9457.79765  11.4%  18.1    0s
H 1916  1339                    10674.000000 9457.79765  11.4%  18.4    0s
 33826 11207 10531.5705   38   30 10674.0000 10054.9644  5.80%  25.1    5s
 70317 14356 10564.3913   43   12 10674.0000 10247.1812  4.00%  26.5   10s
 107263  8113 10634.8055   27   16 10674.0000 10433.2759  2.26%  26.9   15s

Cutting planes:
  Gomory: 2
  Lift-and-project: 14
  Cover: 65
  Implied bound: 23
  Dual implied bound: 33
  MIR: 171
  Flow cover: 290
  Flow path: 46
  Zero half: 7
  Network: 57
  Relax-and-lift: 3

Explored 122235 nodes (3193027 simplex iterations) in 16.63 seconds (23.75 work units)
Thread count was 16 (of 16 available processors)

Solution count 10: 10674 10678 10681 ... 11110

Optimal solution found (tolerance 1.00e-04)
Best objective 1.067400000000e+04, best bound 1.067400000000e+04, gap 0.0000%
